SECTION Graph
Nodes 402
Edges 780
E 1 318 3
E 1 330 1
E 1 348 4
E 2 13 2
E 2 323 3
E 2 353 4
E 3 4 1
E 3 339 3
E 3 347 1
E 3 359 4
E 4 343 3
E 4 356 2
E 4 361 4
E 5 9 1
E 5 370 1
E 5 375 1
E 6 10 1
E 6 369 6
E 7 11 1
E 7 73 1
E 7 349 4
E 7 366 5
E 8 12 1
E 8 372 2
E 9 14 1
E 9 368 1
E 10 15 1
E 10 75 6
E 11 16 1
E 11 345 4
E 11 358 1
E 12 17 1
E 12 81 2
E 13 335 3
E 13 347 1
E 13 355 4
E 14 366 1
E 15 375 2
E 15 376 1
E 16 82 1
E 16 340 4
E 16 341 4
E 17 87 2
E 17 365 4
E 18 19 1
E 18 194 38
E 18 224 1
E 18 228 2
E 19 226 1
E 19 229 2
E 19 230 2
E 20 244 5
E 20 246 1
E 20 286 18
E 21 207 38
E 21 238 1
E 21 241 1
E 21 242 1
E 22 241 2
E 22 243 1
E 22 245 1
E 22 265 16
E 23 187 1
E 23 188 1
E 23 192 1
E 23 196 4
E 24 26 1
E 24 210 1
E 24 211 4
E 25 27 1
E 25 188 1
E 25 192 1
E 25 193 1
E 26 28 1
E 26 208 1
E 27 184 1
E 27 185 1
E 27 190 1
E 28 166 43
E 28 206 1
E 29 88 1
E 29 91 2
E 29 118 1
E 29 125 1
E 30 88 1
E 30 121 2
E 30 132 1
E 30 145 11
E 31 32 1
E 31 149 1
E 31 150 1
E 32 154 1
E 32 163 11
E 33 101 1
E 33 102 1
E 34 101 1
E 34 106 1
E 34 116 11
E 35 36 1
E 35 120 1
E 36 124 1
E 36 143 11
E 37 132 11
E 37 145 1
E 37 152 1
E 37 153 1
E 38 151 1
E 38 152 1
E 38 157 1
E 38 180 42
E 39 158 10
E 39 162 1
E 39 164 1
E 39 165 1
E 40 97 1
E 40 98 1
E 40 99 10
E 40 107 14
E 41 43 5
E 41 98 10
E 41 99 1
E 42 43 10
E 42 44 5
E 42 95 1
E 42 98 5
E 43 45 5
E 44 45 10
E 44 46 1
E 44 94 1
E 45 47 1
E 46 47 10
E 46 92 1
E 46 93 1
E 47 49 1
E 48 92 1
E 48 93 1
E 49 93 10
E 50 167 1
E 50 168 6
E 50 212 45
E 51 89 1
E 51 168 9
E 51 173 1
E 51 175 1
E 52 135 42
E 52 167 6
E 52 168 1
E 52 171 5
E 53 170 4
E 53 177 5
E 53 215 38
E 54 72 216
E 54 100 1
E 54 111 6
E 55 91 1
E 55 105 9
E 55 114 1
E 55 118 2
E 56 88 2
E 56 91 1
E 56 111 9
E 56 121 1
E 57 105 1
E 57 114 9
E 58 100 6
E 58 111 1
E 58 121 9
E 58 128 11
E 59 284 1
E 59 290 1
E 59 328 10
E 60 334 1
E 60 335 1
E 60 339 1
E 60 347 3
E 61 68 5
E 61 266 4
E 61 287 10
E 62 259 10
E 62 287 1
E 62 306 4
E 62 315 6
E 63 64 2
E 63 308 2
E 64 316 2
E 65 354 1
E 65 374 9
E 66 71 8
E 66 214 17
E 66 239 6
E 66 248 17
E 67 222 16
E 67 239 5
E 67 247 7
E 67 250 9
E 68 69 5
E 68 271 10
E 69 70 1
E 69 256 10
E 70 71 1
E 70 253 10
E 71 250 10
E 73 358 1
E 73 362 1
E 73 368 5
E 74 75 1
E 74 78 1
E 74 364 2
E 74 376 5
E 75 79 1
E 75 369 1
E 76 77 1
E 76 83 1
E 76 358 1
E 76 362 1
E 77 78 2
E 77 84 1
E 77 364 1
E 78 79 1
E 78 363 1
E 79 80 1
E 79 85 1
E 80 81 1
E 80 86 1
E 80 369 1
E 81 87 1
E 81 372 1
E 82 83 1
E 82 344 4
E 82 358 1
E 83 84 1
E 83 348 4
E 84 353 4
E 84 363 2
E 85 86 1
E 85 357 4
E 85 363 1
E 86 87 1
E 86 359 4
E 87 361 4
E 88 129 1
E 89 90 1
E 89 169 9
E 89 178 1
E 90 170 9
E 90 182 1
E 90 191 4
E 91 108 9
E 92 94 1
E 94 95 5
E 95 96 5
E 96 97 1
E 96 98 1
E 97 104 14
E 99 117 14
E 100 113 11
E 101 103 1
E 102 103 1
E 102 104 1
E 103 106 1
E 103 110 2
E 104 107 1
E 104 109 2
E 105 108 1
E 106 109 1
E 106 119 11
E 107 110 1
E 107 117 10
E 108 111 1
E 109 112 1
E 109 123 11
E 110 112 1
E 110 120 10
E 112 124 10
E 112 127 11
E 113 115 2
E 113 128 6
E 114 116 2
E 115 135 6
E 115 167 42
E 116 118 1
E 116 119 1
E 117 120 1
E 118 122 1
E 119 122 1
E 119 123 1
E 120 124 1
E 121 139 11
E 122 125 1
E 122 126 1
E 123 126 1
E 123 127 1
E 124 140 11
E 125 129 1
E 125 134 2
E 126 130 1
E 126 133 2
E 127 130 1
E 127 140 10
E 128 131 1
E 128 139 9
E 129 132 1
E 129 133 1
E 130 134 1
E 130 142 10
E 131 135 1
E 131 141 9
E 132 136 1
E 133 136 1
E 133 137 1
E 134 137 1
E 134 146 10
E 135 144 9
E 136 138 1
E 136 153 11
E 137 138 1
E 137 149 10
E 138 154 10
E 138 156 11
E 139 141 1
E 139 145 2
E 140 142 1
E 140 143 1
E 141 144 1
E 141 148 2
E 142 146 1
E 142 147 1
E 143 147 1
E 144 151 2
E 144 173 42
E 145 148 1
E 146 149 1
E 146 150 1
E 147 150 1
E 148 151 1
E 148 152 1
E 149 154 1
E 151 176 42
E 152 155 1
E 153 155 1
E 153 156 1
E 154 162 11
E 155 157 1
E 155 158 1
E 156 158 1
E 156 162 10
E 157 159 1
E 157 185 42
E 158 159 1
E 159 160 5
E 159 189 42
E 160 161 1
E 160 198 43
E 161 164 4
E 161 201 43
E 162 163 1
E 163 165 1
E 164 166 1
E 164 205 42
E 165 166 1
E 168 169 1
E 169 170 1
E 171 172 1
E 171 177 7
E 172 173 3
E 172 181 7
E 173 174 1
E 174 175 1
E 174 176 1
E 175 178 1
E 175 179 1
E 176 179 1
E 176 180 1
E 177 181 1
E 177 218 38
E 178 182 1
E 178 183 1
E 179 183 1
E 179 184 1
E 180 184 1
E 180 185 1
E 181 186 1
E 181 220 38
E 182 187 1
E 182 194 4
E 183 187 1
E 183 188 1
E 184 188 1
E 185 189 1
E 186 191 2
E 186 225 41
E 189 190 1
E 189 205 10
E 190 193 1
E 190 198 5
E 191 194 1
E 191 224 38
E 192 195 1
E 192 197 4
E 193 195 1
E 193 200 5
E 194 196 2
E 195 199 4
E 195 202 5
E 196 197 1
E 196 228 38
E 197 199 1
E 197 231 38
E 198 200 1
E 198 201 1
E 199 207 5
E 199 233 38
E 200 202 1
E 200 203 1
E 201 203 1
E 201 206 4
E 202 204 1
E 202 207 4
E 203 204 1
E 203 208 4
E 204 209 4
E 204 210 4
E 205 206 1
E 206 208 1
E 207 209 1
E 208 210 1
E 209 211 5
E 209 242 38
E 211 246 38
E 212 213 1
E 212 215 5
E 213 214 2
E 213 216 5
E 214 217 5
E 215 216 1
E 215 218 5
E 216 217 2
E 216 219 5
E 217 222 5
E 217 239 16
E 218 219 1
E 218 220 1
E 219 221 1
E 219 222 2
E 220 221 1
E 220 224 3
E 221 223 2
E 221 226 3
E 222 223 1
E 223 225 1
E 223 254 25
E 224 226 1
E 225 227 2
E 225 258 25
E 226 227 2
E 227 229 1
E 228 230 1
E 228 231 1
E 229 234 2
E 229 263 25
E 230 232 1
E 230 234 2
E 231 232 1
E 231 233 1
E 232 235 1
E 232 236 2
E 233 235 1
E 233 238 4
E 234 236 1
E 234 247 16
E 235 237 2
E 235 240 4
E 236 237 1
E 236 249 16
E 237 243 4
E 237 252 16
E 238 240 1
E 240 241 1
E 240 243 2
E 241 244 1
E 242 244 1
E 242 246 5
E 243 262 16
E 244 245 2
E 245 269 16
E 247 248 1
E 247 249 1
E 248 251 1
E 248 273 8
E 249 251 1
E 249 252 1
E 250 253 1
E 250 254 1
E 251 255 1
E 251 277 8
E 252 255 1
E 252 262 4
E 253 256 1
E 253 257 1
E 254 257 1
E 254 258 1
E 255 264 4
E 255 281 8
E 256 259 1
E 256 271 5
E 257 259 1
E 257 260 1
E 258 260 1
E 258 263 3
E 259 261 1
E 260 261 1
E 260 267 3
E 261 272 3
E 261 311 14
E 262 264 1
E 262 265 1
E 263 267 1
E 263 273 2
E 264 268 1
E 264 291 8
E 265 268 1
E 265 269 1
E 266 270 1
E 266 301 10
E 267 272 1
E 267 276 2
E 268 274 1
E 268 295 8
E 269 274 1
E 269 286 5
E 270 275 1
E 270 305 10
E 271 287 5
E 271 288 5
E 272 279 2
E 272 288 5
E 273 276 1
E 273 277 1
E 274 289 5
E 274 299 8
E 275 278 1
E 275 309 10
E 276 279 1
E 276 280 1
E 277 280 1
E 277 281 1
E 278 284 2
E 278 312 10
E 279 282 1
E 279 293 5
E 280 282 1
E 280 283 1
E 281 283 1
E 281 291 4
E 282 285 1
E 282 296 5
E 283 285 1
E 283 294 4
E 284 322 10
E 285 297 4
E 285 302 5
E 286 289 1
E 287 301 4
E 288 293 2
E 288 324 9
E 289 321 8
E 290 292 1
E 290 333 10
E 291 294 1
E 291 295 1
E 292 300 2
E 292 336 10
E 293 296 1
E 293 315 5
E 294 297 1
E 294 298 1
E 295 298 1
E 295 299 1
E 296 302 1
E 296 319 5
E 297 303 1
E 297 320 5
E 298 303 1
E 298 304 1
E 299 304 1
E 299 321 5
E 300 308 2
E 300 342 10
E 301 305 1
E 301 306 1
E 302 320 4
E 302 325 5
E 303 307 1
E 303 326 5
E 304 307 1
E 304 327 5
E 305 309 1
E 305 310 1
E 306 310 1
E 306 311 1
E 307 331 5
E 307 332 5
E 308 316 2
E 308 351 10
E 309 312 1
E 309 313 1
E 310 313 1
E 310 314 1
E 311 314 1
E 311 324 3
E 312 317 1
E 312 322 2
E 313 317 1
E 313 318 1
E 314 318 1
E 314 330 3
E 315 319 1
E 316 354 10
E 317 323 1
E 317 329 2
E 318 323 1
E 319 325 1
E 320 326 1
E 320 341 5
E 321 327 1
E 322 328 1
E 322 329 1
E 323 335 2
E 324 330 1
E 324 340 4
E 325 340 4
E 325 341 4
E 326 331 1
E 326 345 5
E 327 332 1
E 328 333 1
E 328 334 1
E 329 334 1
E 329 335 1
E 330 344 4
E 331 349 5
E 331 350 5
E 332 350 5
E 333 336 1
E 333 337 1
E 334 337 1
E 336 338 1
E 336 342 2
E 337 338 1
E 337 339 1
E 338 343 1
E 338 346 2
E 339 343 1
E 340 344 1
E 341 345 1
E 342 346 1
E 342 351 2
E 343 352 2
E 344 348 1
E 345 349 1
E 346 352 1
E 347 357 4
E 348 353 1
E 349 360 5
E 350 360 5
E 351 354 2
E 351 367 9
E 352 356 3
E 353 355 2
E 354 371 9
E 355 357 1
E 355 363 4
E 356 365 4
E 357 359 1
E 359 361 1
E 360 366 4
E 361 365 2
E 362 364 1
E 362 370 5
E 364 373 5
E 365 367 2
E 366 368 1
E 367 371 2
E 368 370 1
E 369 372 1
E 370 373 1
E 371 374 1
E 373 375 1
E 373 376 2
E 1 377 100000
E 2 377 100000
E 3 377 100000
E 4 377 100000
E 5 377 100000
E 6 377 100000
E 7 377 100000
E 8 377 100000
E 9 378 100000
E 10 378 100000
E 11 378 100000
E 12 378 100000
E 13 379 100000
E 14 379 100000
E 15 379 100000
E 16 379 100000
E 17 379 100000
E 18 380 100000
E 19 380 100000
E 20 380 100000
E 21 380 100000
E 22 380 100000
E 23 381 100000
E 24 381 100000
E 25 382 100000
E 26 382 100000
E 27 383 100000
E 28 383 100000
E 29 384 100000
E 30 384 100000
E 31 384 100000
E 32 384 100000
E 33 385 100000
E 34 385 100000
E 35 385 100000
E 36 385 100000
E 37 386 100000
E 38 386 100000
E 39 386 100000
E 40 387 100000
E 41 387 100000
E 42 388 100000
E 43 388 100000
E 44 389 100000
E 45 389 100000
E 46 390 100000
E 47 390 100000
E 48 391 100000
E 49 391 100000
E 50 392 100000
E 51 392 100000
E 52 392 100000
E 53 392 100000
E 54 393 100000
E 55 393 100000
E 56 393 100000
E 57 393 100000
E 58 393 100000
E 59 394 100000
E 60 394 100000
E 61 395 100000
E 62 395 100000
E 63 396 100000
E 64 396 100000
E 65 396 100000
E 66 397 100000
E 67 397 100000
E 68 398 100000
E 69 399 100000
E 70 400 100000
E 71 401 100000
E 72 402 100000
E 73 377 100000
E 74 377 100000
E 75 377 100000
E 76 378 100000
E 77 378 100000
E 78 378 100000
E 79 378 100000
E 80 378 100000
E 81 378 100000
E 82 379 100000
E 83 379 100000
E 84 379 100000
E 85 379 100000
E 86 379 100000
E 87 379 100000
E 88 384 100000
E 89 392 100000
E 90 392 100000
E 91 393 100000
END

SECTION Terminals
Terminals 26
T 377
T 378
T 379
T 380
T 381
T 382
T 383
T 384
T 385
T 386
T 387
T 388
T 389
T 390
T 391
T 392
T 393
T 394
T 395
T 396
T 397
T 398
T 399
T 400
T 401
T 402
END

SECTION Tree Decomposition
c We do not guarantee that this tree decomposition has minimum width.
s td 326 21 402
b 1 398 68
b 2 399 69
b 3 400 70
b 4 401 71
b 5 402 72
b 6 72 54
b 7 397 66 67
b 8 390 47 46
b 9 395 61 62
b 10 381 23 24
b 11 383 27 28
b 12 387 41 40
b 13 388 43 42
b 14 389 44 45
b 15 382 26 25
b 16 391 48 49
b 17 394 60 59
b 18 374 65 371
b 19 97 96 40 104
b 20 346 352 342 338
b 21 8 372 12 377
b 22 350 360 331 332
b 23 95 94 42 96
b 24 356 352 4 365
b 25 93 48 49 46
b 26 367 371 351 365
b 27 375 373 5 15
b 28 376 373 74 15
b 29 92 48 46 94
b 30 100 54 58 113
b 31 386 39 37 38
b 32 396 63 64 65
b 33 99 41 40 117
b 34 101 103 33 34
b 35 102 104 103 33
b 36 105 108 57 55
b 37 114 57 55 116
b 38 115 167 135 113
b 39 131 128 141 135
b 40 35 385 120 36
b 41 143 147 140 36
b 42 48 49 46 94
b 43 150 147 146 31
b 44 160 161 198 159
b 45 163 32 162 165
b 46 166 165 28 164
b 47 43 45 42 41
b 48 169 170 89 168
b 49 171 172 52 177
b 50 174 175 176 173
b 51 49 47 46 94
b 52 186 181 191 225
b 53 47 46 94 45
b 54 187 183 23 182
b 55 46 44 94 45
b 56 205 206 189 164
b 57 210 204 208 24
b 58 44 94 45 42
b 59 211 246 24 209
b 60 94 45 42 96
b 61 212 213 215 50
b 62 45 42 41 96
b 63 14 9 379 366
b 64 42 98 41 96
b 65 214 213 217 66
b 66 98 41 96 40
b 67 227 225 226 229
b 68 41 96 40 117
b 69 96 40 117 104
b 70 238 233 21 240
b 71 40 107 117 104
b 72 239 217 66 67
b 73 107 117 110 104
b 74 117 110 104 120
b 75 245 244 269 22
b 76 63 64 65 308
b 77 64 316 65 308
b 78 266 61 270 301
b 79 68 61 69 271
b 80 275 278 309 270
b 81 6 10 369 377
b 82 284 278 59 322
b 83 321 327 299 289
b 84 71 70 250 66
b 85 286 289 269 20
b 86 290 292 333 59
b 87 300 308 292 342
b 88 315 319 293 62
b 89 316 65 354 308
b 90 65 354 371 308
b 91 354 371 351 308
b 92 371 351 308 365
b 93 351 308 342 365
b 94 308 292 342 365
b 95 355 353 13 363 357
b 96 306 301 310 62 311
b 97 307 331 303 304 332
b 98 359 361 3 86 357
b 99 305 309 270 301 310
b 100 358 82 76 11 73
b 101 362 370 364 76 73
b 102 360 331 349 366 332
b 103 385 33 34 120 36
b 104 298 295 294 303 304
b 105 343 352 338 339 4
b 106 344 82 348 330 340
b 107 297 320 285 294 303
b 108 372 12 81 369 377
b 109 26 208 28 25 24
b 110 108 57 55 91 111
b 111 106 103 34 109 119
b 112 318 1 314 313 323
b 113 291 295 294 264 281
b 114 110 104 103 120 112
b 115 2 353 13 323 377
b 116 288 324 293 271 272
b 117 368 370 9 73 366
b 118 118 55 116 29 122
b 119 121 56 30 58 139
b 120 123 109 119 127 126
b 121 283 285 280 294 281
b 122 124 120 112 140 36
b 123 125 134 29 122 129
b 124 130 127 142 134 126
b 125 132 136 129 30 37
b 126 133 136 126 137 129
b 127 277 251 273 280 281
b 128 276 267 279 273 280
b 129 325 319 302 340 341
b 130 138 136 137 154 156
b 131 144 151 141 135 173
b 132 145 148 30 37 139
b 133 149 146 137 154 31
b 134 312 278 309 317 322
b 135 161 201 198 159 164
b 136 268 265 274 295 264
b 137 152 148 37 155 38
b 138 153 136 156 37 155
b 139 157 185 155 38 159
b 140 336 292 342 338 333
b 141 158 39 156 155 159
b 142 335 329 60 13 323
b 143 261 259 260 272 311
b 144 167 135 113 50 52
b 145 170 53 90 89 168
b 146 258 263 260 225 254
b 147 257 253 259 260 254
b 148 256 253 259 69 271
b 149 178 183 175 89 182
b 150 179 183 175 176 184
b 151 180 185 38 176 184
b 152 172 181 52 173 177
b 153 188 183 184 23 25
b 154 190 193 198 27 189
b 155 249 252 251 247 236
b 156 248 251 247 273 66
b 157 192 197 23 25 195
b 158 194 196 191 182 18
b 159 199 207 233 197 195
b 160 200 193 198 203 202
b 161 243 22 237 240 262
b 162 345 349 11 326 341
b 163 241 244 22 21 240
b 164 216 213 217 219 215
b 165 218 219 220 215 177
b 166 221 219 223 220 226
b 167 222 217 219 223 67
b 168 224 220 191 18 226
b 169 235 232 233 237 240
b 170 54 111 393 58 113
b 171 228 196 231 18 230
b 172 234 247 229 230 236
b 173 337 338 333 339 334
b 174 242 246 244 21 209
b 175 255 252 251 264 281
b 176 328 333 334 59 322
b 177 17 12 87 365 379
b 178 347 60 3 13 357
b 179 282 296 285 279 280
b 180 287 61 301 62 271
b 181 70 250 253 69 66
b 182 327 299 289 304 332
b 183 292 342 338 333 59 365
b 184 352 342 338 339 4 365
b 185 85 79 363 86 357 379
b 186 83 82 76 84 348 379
b 187 78 77 74 79 378 363
b 188 299 289 274 295 304 332
b 189 373 5 370 364 74 15
b 190 7 349 11 73 366 377
b 191 380 19 20 22 18 21
b 192 104 103 33 120 112 109
b 193 278 309 270 59 317 322
b 194 32 162 165 154 31 384
b 195 128 141 135 58 113 139
b 196 80 81 369 79 378 86
b 197 147 146 140 36 142 31
b 198 213 217 219 215 50 66
b 199 88 56 29 129 384 30
b 200 204 208 203 202 24 209
b 201 16 82 379 11 340 341
b 202 250 253 69 66 67 254
b 203 10 75 369 15 378 377
b 204 201 198 206 203 159 164
b 205 61 270 301 62 69 271
b 206 51 175 89 168 392 173
b 207 57 55 91 111 393 116
b 208 246 244 20 21 24 209
b 209 331 349 366 326 303 304 332
b 210 55 91 111 393 116 29 122
b 211 103 33 34 120 112 109 119
b 212 320 302 285 326 341 294 303
b 213 289 274 295 269 20 304 332
b 214 53 90 89 168 392 215 177
b 215 5 370 9 364 74 15 377
b 216 91 111 393 56 116 29 122
b 217 1 314 313 323 348 377 330
b 218 33 34 120 112 109 119 36
b 219 162 165 39 154 31 156 384
b 220 34 120 112 109 119 36 116
b 221 120 112 109 119 140 36 116
b 222 151 141 135 148 38 176 173
b 223 112 109 119 127 140 36 116
b 224 267 263 260 272 279 273 280
b 225 109 119 127 140 36 126 116
b 226 361 4 3 86 87 357 365
b 227 119 127 140 36 126 116 122
b 228 265 274 295 269 22 262 264
b 229 207 233 197 195 202 21 209
b 230 329 334 60 13 323 317 322
b 231 342 338 333 339 4 59 365
b 232 324 293 330 340 271 272 311
b 233 338 333 339 334 4 59 365
b 234 181 220 52 173 177 191 225
b 235 333 339 334 4 59 322 365
b 236 217 219 223 215 50 66 67
b 237 232 233 231 230 236 237 240
b 238 75 369 74 15 79 378 377
b 239 319 296 302 293 340 341 62
b 240 208 206 203 28 25 202 24 209
b 241 77 364 74 79 378 76 363 84
b 242 309 270 301 313 310 59 317 322
b 243 193 198 203 27 189 25 195 202
b 244 185 27 189 155 38 159 176 184
b 245 111 393 56 116 29 122 58 113
b 246 353 13 323 363 84 348 357 377
b 247 19 20 22 18 21 226 229 230
b 248 127 140 36 142 134 126 116 122
b 249 253 259 260 69 271 66 67 254
b 250 12 81 369 378 87 365 379 377
b 251 146 140 36 142 134 137 154 31
b 252 183 175 89 176 184 23 25 182
b 253 165 39 154 31 156 384 28 164
b 254 90 89 168 392 215 177 191 182
b 255 244 269 20 22 21 24 209 240
b 256 196 231 197 191 23 182 18 230
b 257 252 251 247 236 237 262 264 281
b 258 314 313 310 323 348 377 330 311
b 259 339 334 60 4 3 59 322 365
b 260 81 369 79 378 86 87 365 379 377
b 261 219 223 220 215 50 177 66 67 226
b 262 136 126 137 129 154 156 30 37 155
b 263 370 9 364 74 15 76 73 366 377
b 264 296 302 285 293 340 341 62 279 280
b 265 141 135 148 58 113 139 38 176 173
b 266 263 260 272 279 273 280 225 229 254
b 267 274 295 269 20 22 262 264 304 332
b 268 140 36 142 134 126 137 116 122 154 31
b 269 134 126 137 116 29 122 129 154 31
b 270 369 74 15 79 378 86 87 365 379 377
b 271 251 247 273 280 66 236 237 262 264 281
b 272 349 11 73 366 377 326 341 303 304 332
b 273 135 148 58 113 139 38 176 50 52 173
b 274 270 301 313 310 59 317 322 62 69 271
b 275 9 364 74 15 378 76 379 73 366 377
b 276 301 313 310 59 317 322 62 69 271 311
b 277 259 260 62 69 271 272 311 66 67 254
b 278 198 206 203 27 189 159 164 25 195 202
b 279 175 89 168 392 176 184 173 23 25 182
b 280 223 220 215 50 177 66 67 225 226 254
b 281 82 76 84 348 379 11 73 330 340 341
b 282 56 116 29 122 129 384 30 58 113 139
b 283 334 60 4 3 13 323 59 317 322 365
b 284 60 4 3 13 323 59 317 322 357 365
b 285 295 269 20 22 294 262 264 281 303 304 332
b 286 39 154 31 156 384 37 155 28 38 159 164
b 287 233 231 197 195 202 21 209 230 236 237 240
b 288 302 285 293 326 340 341 62 279 280 294 303
b 289 285 293 326 340 341 62 279 280 294 281 303
b 290 148 30 37 58 113 139 155 38 176 50 52 173
b 291 4 3 13 323 59 317 322 86 87 357 365 377
b 292 126 137 116 29 122 129 154 31 156 30 37 155
b 293 364 74 15 79 378 76 363 84 379 73 366 377
b 294 206 203 27 189 28 159 164 25 195 202 24 209
b 295 247 273 280 66 67 229 230 236 237 262 264 281
b 296 89 168 392 176 184 215 173 177 191 23 25 182
b 297 313 310 323 59 317 322 348 377 330 62 69 271 311
b 298 168 392 176 184 215 50 52 173 177 191 23 25 182
b 299 220 215 50 52 173 177 191 18 66 67 225 226 254
b 300 27 189 155 28 38 159 164 176 184 25 195 202 24 209
b 301 116 29 122 129 154 31 156 384 30 37 58 113 139 155
b 302 260 62 69 271 272 279 311 273 280 66 67 225 229 254
b 303 293 326 330 340 341 62 271 272 279 311 280 294 281 303
b 304 154 31 156 384 30 37 58 113 139 155 28 38 159 164
b 305 269 20 22 294 21 24 209 240 262 264 281 303 304 332
b 306 74 15 79 378 76 363 84 86 87 365 379 73 366 377
b 307 79 378 76 363 84 86 87 357 365 379 73 366 377
b 308 378 76 363 84 86 87 357 365 379 11 73 366 377
b 309 30 37 58 113 139 155 28 38 159 164 176 50 52 173
b 310 13 323 59 317 322 363 84 86 87 348 357 365 379 377
b 311 231 197 191 23 182 195 202 18 21 209 230 236 237 240
b 312 197 191 23 25 182 195 202 18 21 209 230 236 237 240
b 313 155 28 38 159 164 176 184 50 52 173 25 195 202 24 209
b 314 176 184 215 50 52 173 177 191 23 25 182 195 202 24 209
b 315 76 363 84 86 87 348 357 365 379 11 73 366 377 330 340 341
b 316 20 22 294 18 21 24 209 226 229 230 240 262 264 281 303 304 332
b 317 22 294 18 21 24 209 226 229 230 237 240 262 264 281 303 304 332
b 318 323 59 317 322 363 84 86 87 348 357 365 379 377 330 62 69 271 311
b 319 215 50 52 173 177 191 23 25 182 195 202 18 24 66 67 209 225 226 254
b 320 363 84 86 87 348 357 365 379 11 73 366 377 330 340 341 62 69 271 311
b 321 11 73 366 377 326 330 340 341 62 69 271 311 303 304 332
b 322 326 330 340 341 62 69 271 272 279 311 280 294 281 303 304 332
b 323 62 69 271 272 279 311 273 280 294 66 67 225 229 254 281 303 304 332
b 324 273 280 294 66 67 225 229 230 236 237 254 262 264 281 303 304 332
b 325 191 23 25 182 195 202 18 21 24 66 67 209 225 226 230 236 237 240 254
b 326 294 18 21 24 66 67 209 225 226 229 230 236 237 240 254 262 264 281 303 304 332
1 79
79 205
205 274
274 276
276 297
297 318
318 320
320 315
318 310
315 308
308 307
307 306
320 321
306 293
321 322
322 303
322 323
323 302
323 324
324 326
326 317
317 316
326 325
325 319
316 305
325 312
319 314
312 311
319 299
314 298
298 296
324 295
311 287
314 313
313 300
305 285
310 291
300 294
303 289
289 288
299 280
315 281
296 279
295 271
313 309
309 290
309 304
304 286
304 301
301 292
294 278
291 284
290 273
301 282
306 270
284 283
321 272
293 275
302 277
285 267
288 264
280 261
292 262
292 269
273 265
275 263
270 260
302 266
274 242
305 255
311 256
296 254
300 244
310 246
294 240
279 252
271 257
286 253
278 243
283 259
277 249
293 241
297 258
269 268
260 250
268 248
268 251
316 247
299 234
287 237
287 229
291 226
288 212
282 245
270 238
283 230
272 209
267 213
267 228
264 239
261 236
265 222
263 215
266 224
254 214
303 232
253 219
259 235
258 217
248 227
245 216
235 233
227 225
216 210
233 231
225 223
223 221
221 220
220 218
218 211
281 186
281 201
279 206
307 185
278 204
282 199
272 190
265 195
260 196
242 193
255 208
240 200
249 202
241 187
251 197
247 191
238 203
213 188
236 198
215 189
219 194
210 207
231 183
231 184
211 192
211 111
312 157
218 103
299 168
276 96
295 172
285 104
285 113
289 121
281 100
281 106
271 127
271 156
290 132
290 137
286 141
284 178
273 144
282 119
212 107
272 162
277 143
264 179
261 165
261 166
262 125
262 126
262 130
262 138
269 123
263 117
263 101
266 146
242 99
255 163
256 158
256 171
244 139
244 151
246 95
246 115
240 109
252 149
252 150
252 153
257 155
257 175
243 154
243 160
249 148
249 147
250 108
250 177
248 124
251 133
234 152
237 169
229 159
226 98
245 170
230 142
209 97
209 102
228 136
239 129
236 167
222 131
224 128
214 145
232 116
235 176
217 112
233 173
225 120
210 118
221 122
204 135
193 134
208 174
202 181
188 182
198 164
207 110
183 140
317 161
192 114
184 105
205 180
192 35
114 74
74 73
73 71
71 69
69 68
108 21
152 49
170 30
205 78
102 22
184 20
145 48
135 44
181 84
182 83
110 36
69 19
68 33
68 66
66 64
64 62
62 47
62 60
60 23
60 58
58 55
55 53
53 51
51 42
42 25
42 29
287 70
294 56
279 50
286 31
275 63
255 75
252 54
253 46
234 52
326 67
213 85
239 88
236 72
211 34
195 39
193 80
193 82
208 59
200 57
197 41
197 43
203 81
198 61
198 65
189 27
189 28
194 45
207 37
183 86
183 94
94 87
94 93
93 92
92 26
92 91
91 90
90 89
89 77
77 76
76 32
103 40
184 24
144 38
90 18
109 15
319 7
319 10
180 9
25 16
51 8
55 14
47 13
300 11
66 12
284 17
318 2
181 3
84 4
170 6
6 5
END

EOF
